103669
17,7,27,33,11,40,82,75,16,38,2,30,35,28,79,6,61,83,8,53,59,68,44,22,32,74,58,77,9,20,67,76,26,62,70,14,29,10,1,64,73,13,37,18,54,46,45,80,36,66,71,21,5,19,48,24,31,65,50,4,63,39,52,41,78,69,15,25,42,55,23,12,3,43,57,34,49,47,60,81,72,51,56
